c read Graph
c width = 2
c time = 161 ms
c width = 2
c time = 4194 ms
s td 30 3 32
b 1 1 2 18
b 2 2 3 19
b 3 3 4 20
b 4 4 5 21
b 5 5 6 22
b 6 6 7 23
b 7 7 8 24
b 8 8 9 25
b 9 9 10 26
b 10 10 11 27
b 11 11 12 28
b 12 12 13 29
b 13 13 14 30
b 14 14 15 31
b 15 15 16 32
b 16 15 31 32
b 17 14 30 31
b 18 13 29 30
b 19 12 28 29
b 20 11 27 28
b 21 10 26 27
b 22 9 25 26
b 23 8 24 25
b 24 7 23 24
b 25 6 22 23
b 26 5 21 22
b 27 4 20 21
b 28 3 19 20
b 29 2 18 19
b 30 1 17 18
1 30
1 29
2 29
2 28
3 28
3 27
4 27
4 26
5 26
5 25
6 25
6 24
7 24
7 23
8 23
8 22
9 22
9 21
10 21
10 20
11 20
11 19
12 19
12 18
13 18
13 17
14 17
14 16
15 16
